Route #1: 0 20 28 33 44 0
Route #2: 0 27 38 10 26 0
Route #3: 0 16 37 45 34 46 0
Route #4: 0 17 43 2 30 29 0
Route #5: 0 39 35 8 13 15 4 0
Route #6: 0 47 19 14 7 12 0
Route #7: 0 11 48 21 42 0
Route #8: 0 31 25 18 32 6 0
Route #9: 0 5 22 1 23 49 24 0
Route #10: 0 36 41 3 9 40 0
Cost 1150:
